DATASET = "thpack5";
INSTANCE = "031";

WIDTH = 233;
HEIGHT = 220;
LENGTH = 587;

NO_OF_SHAPES = 12;
size = [|
  70,63,49 |
  84,54,49 |
  89,70,42 |
  80,48,39 |
  114,47,42 |
  92,62,34 |
  72,66,43 |
  120,55,46 |
  106,62,25 |
  72,53,34 |
  74,44,35 |
  103,71,28 |
|];

verticality = [|
  1,1,1 |
  1,1,1 |
  0,1,1 |
  0,1,1 |
  0,1,1 |
  0,1,1 |
  1,1,1 |
  0,1,1 |
  0,0,1 |
  0,1,1 |
  0,1,1 |
  0,0,1 |
|];

box_count = [
  13,
  12,
  13,
  9,
  14,
  15,
  9,
  13,
  17,
  10,
  8,
  14,
];
